0 40 
1 47 
2 52 
3 52 
4 52 
5 53 
6 54 
7 51 
8 49 
9 47 
10 46 
11 45 
12 44 
13 43 
14 42 
15 46 
16 44 
17 44 
18 44 
19 43 
20 43 
21 42 
22 41 
23 42 
24 40 
25 37 
26 36 
27 36 
28 34 
29 32 
30 30 
31 29 
32 30 
33 26 
34 23 
35 25 
36 26 
37 24 
38 23 
39 24 
40 23 
41 22 
42 21 
43 22 
44 20 
45 19 
46 20 
47 20 
48 18 
49 16 
50 16 
51 14 
52 14 
53 13 
54 12 
55 12 
56 11 
57 10 
58 9 
59 9 
60 10 
61 8 
62 7 
63 5 
64 3 
65 0 
66 0 

